
  22    4
  10   10   10   10

   0   0   0   0   0   8 2 3 4 5 7 10 11 16 
   8  10  10  10  10   6 20 15 12 9 8 6 
   6  10  10  10  10   3 20 12 6 
   1  10  10  10  10   4 20 19 14 8 
   9  10  10  10  10   3 21 13 6 
   9  10  10  10  10   3 19 18 14 
   1  10  10  10  10   1 8 
   1  10  10  10  10   2 18 13 
   5  10  10  10  10   2 18 13 
   7  10  10  10  10   2 19 17 
   6  10  10  10  10   2 19 17 
   1  10  10  10  10   1 13 
   8  10  10  10  10   1 17 
   8  10  10  10  10   1 17 
   4  10  10  10  10   1 17 
   7  10  10  10  10   1 17 
   8  10  10  10  10   1 22
   7  10  10  10  10   1 22
   5  10  10  10  10   1 22
   8  10  10  10  10   1 22
   2  10  10  10  10   1 22
   0   0   0   0   0   0 
